c IN1002 Introduction to Algorithms!
c top secret ID string c847751346
c 4 variables and 6 clauses
p cnf 4 6
c each line is a clause, 0 marks the end
-2 2 2 0
-3 2 1 0
3 4 1 0
2 -3 0
3 -2 -1 0
4 -3 3 0
c Good luck!
